c Result of efficient AIG-to-CNF conversion using package CNF
p cnf 693 2582
-2 -661 555 0
-2 -662 555 0
-2 3 555 0
2 -555 0
2 661 662 -3 0
-3 -4 330 487 0
-3 175 330 487 0
3 -487 0
3 -330 0
3 4 -175 0
4 -6 155 0
4 -5 155 0
-4 -155 0
-4 5 6 0
5 -656 -688 0
-5 656 0
-5 688 0
6 7 -8 0
6 -7 -129 0
-6 -7 129 0
-6 7 8 0
7 -657 -689 0
-7 657 0
-7 689 0
8 9 -10 0
8 -9 -102 0
-8 -9 102 0
-8 9 10 0
9 -658 -690 0
-9 658 0
-9 690 0
10 11 -12 0
10 -11 -76 0
-10 -11 76 0
-10 11 12 0
11 -659 -691 0
-11 659 0
-11 691 0
12 660 -13 0
12 -660 -692 -50 0
12 692 -13 0
-12 660 13 0
-12 692 13 0
-12 -660 -692 50 0
13 -688 14 -39 0
13 688 14 -24 0
-13 -14 0
-13 -688 39 0
-13 688 24 0
-14 661 662 15 0
14 -15 0
14 -662 0
14 -661 0
-15 16 18 19 20 0
15 -20 0
15 -16 0
15 -19 0
15 -18 0
-16 685 686 687 17 0
16 -17 0
16 -687 0
16 -685 0
16 -686 0
-17 676 677 678 0
17 -676 0
17 -678 0
17 -677 0
-18 681 682 683 684 0
18 -684 0
18 -683 0
18 -681 0
18 -682 0
-19 667 668 679 680 0
19 -680 0
19 -679 0
19 -667 0
19 -668 0
-20 665 666 21 23 0
20 -665 0
20 -23 0
20 -21 0
20 -666 0
-21 674 675 22 0
21 -22 0
21 -675 0
21 -674 0
-22 670 671 672 673 0
22 -673 0
22 -672 0
22 -670 0
22 -671 0
-23 663 664 669 0
23 -663 0
23 -669 0
23 -664 0
-24 689 25 0
-24 -689 32 0
24 -689 -32 0
24 689 -25 0
-25 690 29 0
-25 -690 26 0
25 -690 -26 0
25 690 -29 0
26 691 -27 0
26 -691 -28 0
-26 -691 28 0
-26 691 27 0
27 -640 -692 0
27 -639 692 0
-27 639 692 0
-27 640 -692 0
28 -642 -692 0
28 -641 692 0
-28 641 692 0
-28 642 -692 0
29 691 -30 0
29 -691 -31 0
-29 -691 31 0
-29 691 30 0
30 -636 -692 0
30 -635 692 0
-30 635 692 0
-30 636 -692 0
31 -638 -692 0
31 -637 692 0
-31 637 692 0
-31 638 -692 0
32 690 -33 0
32 -690 -36 0
-32 -690 36 0
-32 690 33 0
33 691 -34 0
33 -691 -35 0
-33 -691 35 0
-33 691 34 0
34 -644 -692 0
34 -643 692 0
-34 643 692 0
-34 644 -692 0
35 -646 -692 0
35 -645 692 0
-35 645 692 0
-35 646 -692 0
36 691 -37 0
36 -691 -38 0
-36 -691 38 0
-36 691 37 0
37 -648 -692 0
37 -647 692 0
-37 647 692 0
-37 648 -692 0
38 -650 -692 0
38 -649 692 0
-38 649 692 0
-38 650 -692 0
39 689 -40 0
39 -689 -47 0
-39 -689 47 0
-39 689 40 0
40 690 -41 0
40 -690 -44 0
-40 -690 44 0
-40 690 41 0
41 691 -42 0
41 -691 -43 0
-41 -691 43 0
-41 691 42 0
42 -652 -692 0
42 -651 692 0
-42 651 692 0
-42 652 -692 0
43 -654 -692 0
43 -653 692 0
-43 653 692 0
-43 654 -692 0
44 691 -45 0
44 -691 -46 0
-44 -691 46 0
-44 691 45 0
45 -656 -692 0
45 -655 692 0
-45 655 692 0
-45 656 -692 0
46 -658 -692 0
46 -657 692 0
-46 657 692 0
-46 658 -692 0
47 690 -48 0
-47 -690 0
-47 48 0
48 691 -49 0
48 -659 691 692 0
-48 -691 0
-48 -692 49 0
-48 659 49 0
49 -660 -692 0
-49 660 0
-49 692 0
50 -688 14 -66 0
50 688 14 -51 0
-50 -14 0
-50 -688 66 0
-50 688 51 0
-51 689 52 0
-51 -689 59 0
51 -689 -59 0
51 689 -52 0
-52 690 56 0
-52 -690 53 0
52 -690 -53 0
52 690 -56 0
53 691 -54 0
53 -691 -55 0
-53 -691 55 0
-53 691 54 0
54 -641 -692 0
54 -640 692 0
-54 640 692 0
-54 641 -692 0
55 -643 -692 0
55 -642 692 0
-55 642 692 0
-55 643 -692 0
56 691 -57 0
56 -691 -58 0
-56 -691 58 0
-56 691 57 0
57 -637 -692 0
57 -636 692 0
-57 636 692 0
-57 637 -692 0
58 -639 -692 0
58 -638 692 0
-58 638 692 0
-58 639 -692 0
59 690 -60 0
59 -690 -63 0
-59 -690 63 0
-59 690 60 0
60 691 -61 0
60 -691 -62 0
-60 -691 62 0
-60 691 61 0
61 -645 -692 0
61 -644 692 0
-61 644 692 0
-61 645 -692 0
62 -647 -692 0
62 -646 692 0
-62 646 692 0
-62 647 -692 0
63 691 -64 0
63 -691 -65 0
-63 -691 65 0
-63 691 64 0
64 -649 -692 0
64 -648 692 0
-64 648 692 0
-64 649 -692 0
65 -651 -692 0
65 -650 692 0
-65 650 692 0
-65 651 -692 0
66 689 -67 0
66 -689 -74 0
-66 -689 74 0
-66 689 67 0
67 690 -68 0
67 -690 -71 0
-67 -690 71 0
-67 690 68 0
68 691 -69 0
68 -691 -70 0
-68 -691 70 0
-68 691 69 0
69 -653 -692 0
69 -652 692 0
-69 652 692 0
-69 653 -692 0
70 -655 -692 0
70 -654 692 0
-70 654 692 0
-70 655 -692 0
71 691 -72 0
71 -691 -73 0
-71 -691 73 0
-71 691 72 0
72 -657 -692 0
72 -656 692 0
-72 656 692 0
-72 657 -692 0
73 -659 -692 0
73 -658 692 0
-73 658 692 0
-73 659 -692 0
74 690 691 -75 0
-74 75 0
-74 -691 0
-74 -690 0
75 -660 692 0
-75 660 0
-75 -692 0
76 49 -77 0
76 -49 -90 0
-76 -49 90 0
-76 49 77 0
77 -688 14 -85 0
77 688 14 -78 0
-77 -14 0
-77 -688 85 0
-77 688 78 0
78 689 -79 0
78 -689 -82 0
-78 -689 82 0
-78 689 79 0
79 690 -80 0
79 -690 -81 0
-79 -690 81 0
-79 690 80 0
80 -691 -27 0
80 691 -31 0
-80 691 31 0
-80 -691 27 0
81 691 -28 0
81 -691 -34 0
-81 -691 34 0
-81 691 28 0
82 690 -83 0
82 -690 -84 0
-82 -690 84 0
-82 690 83 0
83 691 -35 0
83 -691 -37 0
-83 -691 37 0
-83 691 35 0
84 691 -38 0
84 -691 -42 0
-84 -691 42 0
-84 691 38 0
85 689 -86 0
-85 -689 0
-85 86 0
86 690 -87 0
86 -690 -88 0
-86 -690 88 0
-86 690 87 0
87 691 -43 0
87 -691 -45 0
-87 -691 45 0
-87 691 43 0
88 691 -46 0
88 -691 -89 0
-88 -691 89 0
-88 691 46 0
-89 -692 49 0
-89 659 49 0
89 -49 0
89 -659 692 0
90 -688 14 -98 0
90 688 14 -91 0
-90 -14 0
-90 -688 98 0
-90 688 91 0
91 689 -92 0
91 -689 -95 0
-91 -689 95 0
-91 689 92 0
92 690 -93 0
92 -690 -94 0
-92 -690 94 0
-92 690 93 0
93 -691 -54 0
93 691 -58 0
-93 691 58 0
-93 -691 54 0
94 691 -55 0
94 -691 -61 0
-94 -691 61 0
-94 691 55 0
95 690 -96 0
95 -690 -97 0
-95 -690 97 0
-95 690 96 0
96 691 -62 0
96 -691 -64 0
-96 -691 64 0
-96 691 62 0
97 691 -65 0
97 -691 -69 0
-97 -691 69 0
-97 691 65 0
98 689 -99 0
-98 -689 0
-98 99 0
99 690 -100 0
99 -690 -101 0
-99 -690 101 0
-99 690 100 0
100 691 -70 0
100 -691 -72 0
-100 -691 72 0
-100 691 70 0
101 691 -73 0
101 -691 -75 0
-101 -691 75 0
-101 691 73 0
102 11 -103 0
102 -11 -116 0
-102 -11 116 0
-102 11 103 0
103 49 -104 0
103 -49 -110 0
-103 -49 110 0
-103 49 104 0
104 -688 14 -108 0
104 688 14 -105 0
-104 -14 0
-104 -688 108 0
-104 688 105 0
105 689 -106 0
105 -689 -107 0
-105 -689 107 0
-105 689 106 0
106 690 -26 0
106 -690 -33 0
-106 -690 33 0
-106 690 26 0
107 690 -36 0
107 -690 -41 0
-107 -690 41 0
-107 690 36 0
108 689 -109 0
-108 -689 0
-108 109 0
109 690 -44 0
109 -690 -48 0
-109 -690 48 0
-109 690 44 0
110 -688 14 -114 0
110 688 14 -111 0
-110 -14 0
-110 -688 114 0
-110 688 111 0
111 689 -112 0
111 -689 -113 0
-111 -689 113 0
-111 689 112 0
112 690 -53 0
112 -690 -60 0
-112 -690 60 0
-112 690 53 0
113 690 -63 0
113 -690 -68 0
-113 -690 68 0
-113 690 63 0
114 689 -115 0
-114 -689 0
-114 115 0
115 690 -71 0
115 -690 691 -75 0
-115 -690 -691 0
-115 690 71 0
-115 -690 75 0
116 49 -117 0
116 -49 -123 0
-116 -49 123 0
-116 49 117 0
117 -688 14 -121 0
117 688 14 -118 0
-117 -14 0
-117 -688 121 0
-117 688 118 0
118 689 -119 0
118 -689 -120 0
-118 -689 120 0
-118 689 119 0
119 690 -81 0
119 -690 -83 0
-119 -690 83 0
-119 690 81 0
120 690 -84 0
120 -690 -87 0
-120 -690 87 0
-120 690 84 0
121 689 -122 0
-121 -689 0
-121 122 0
122 690 -88 0
-122 -690 0
-122 88 0
123 -688 14 -127 0
123 688 14 -124 0
-123 -14 0
-123 -688 127 0
-123 688 124 0
124 689 -125 0
124 -689 -126 0
-124 -689 126 0
-124 689 125 0
125 690 -94 0
125 -690 -96 0
-125 -690 96 0
-125 690 94 0
126 690 -97 0
126 -690 -100 0
-126 -690 100 0
-126 690 97 0
127 689 -128 0
-127 -689 0
-127 128 0
128 690 -101 0
-128 -690 0
-128 101 0
129 9 -130 0
129 -9 -144 0
-129 -9 144 0
-129 9 130 0
130 11 -131 0
130 -11 -138 0
-130 -11 138 0
-130 11 131 0
131 49 -132 0
131 -49 -135 0
-131 -49 135 0
-131 49 132 0
132 -688 14 -134 0
132 688 14 -133 0
-132 -14 0
-132 -688 134 0
-132 688 133 0
133 689 -32 0
133 -689 -40 0
-133 -689 40 0
-133 689 32 0
134 689 -47 0
-134 -689 0
-134 47 0
135 -688 14 -137 0
135 688 14 -136 0
-135 -14 0
-135 -688 137 0
-135 688 136 0
136 689 -59 0
136 -689 -67 0
-136 -689 67 0
-136 689 59 0
137 689 -74 0
-137 -689 0
-137 74 0
138 660 -139 0
138 -660 -692 -142 0
138 692 -139 0
-138 660 139 0
-138 692 139 0
-138 -660 -692 142 0
139 140 -141 0
-139 -140 0
-139 141 0
-140 688 14 0
140 -688 0
140 -14 0
141 689 -82 0
141 -689 -86 0
-141 -689 86 0
-141 689 82 0
142 140 -143 0
-142 -140 0
-142 143 0
143 689 -95 0
143 -689 -99 0
-143 -689 99 0
-143 689 95 0
144 11 -145 0
144 -11 -150 0
-144 -11 150 0
-144 11 145 0
145 660 -146 0
145 -660 -692 -148 0
145 692 -146 0
-145 660 146 0
-145 692 146 0
-145 -660 -692 148 0
146 140 -147 0
-146 -140 0
-146 147 0
147 689 -107 0
147 -689 -109 0
-147 -689 109 0
-147 689 107 0
148 140 -149 0
-148 -140 0
-148 149 0
149 689 -113 0
149 -689 -115 0
-149 -689 115 0
-149 689 113 0
150 660 -151 0
150 -660 -692 -153 0
150 692 -151 0
-150 660 151 0
-150 692 151 0
-150 -660 -692 153 0
151 140 -152 0
-151 -140 0
-151 152 0
152 689 -120 0
152 -689 -122 0
-152 -689 122 0
-152 689 120 0
153 140 -154 0
-153 -140 0
-153 154 0
154 689 -126 0
154 -689 -128 0
-154 -689 128 0
-154 689 126 0
-155 5 156 0
155 -5 0
155 -156 0
-156 157 161 0
156 -157 0
156 -161 0
-157 633 158 160 0
-157 665 158 160 0
157 -160 0
157 -158 0
157 -633 -665 0
-158 668 159 0
-158 636 159 0
158 -159 0
158 -636 -668 0
-159 635 666 0
-159 634 667 0
-159 666 667 0
-159 634 635 0
159 -634 -666 0
159 -635 -667 0
-160 632 663 0
-160 631 664 0
-160 663 664 0
-160 631 632 0
160 -631 -663 0
160 -632 -664 0
-161 646 162 169 0
-161 678 162 169 0
161 -169 0
161 -162 0
161 -646 -678 0
-162 163 164 165 168 0
162 -165 0
162 -168 0
162 -163 0
162 -164 0
-163 648 679 0
-163 647 680 0
-163 679 680 0
-163 647 648 0
163 -647 -679 0
163 -648 -680 0
-164 655 686 0
-164 654 687 0
-164 686 687 0
-164 654 655 0
164 -654 -686 0
164 -655 -687 0
-165 684 166 167 0
-165 652 166 167 0
165 -167 0
165 -166 0
165 -652 -684 0
166 -653 -685 0
-166 653 0
-166 685 0
-167 651 682 0
-167 650 683 0
-167 682 683 0
-167 650 651 0
167 -650 -682 0
167 -651 -683 0
168 -649 -681 0
-168 649 0
-168 681 0
-169 170 171 172 0
169 -170 0
169 -171 0
169 -172 0
-170 645 676 0
-170 644 677 0
-170 676 677 0
-170 644 645 0
170 -644 -676 0
170 -645 -677 0
-171 643 674 0
-171 642 675 0
-171 674 675 0
-171 642 643 0
171 -642 -674 0
171 -643 -675 0
-172 639 173 174 0
-172 671 173 174 0
172 -174 0
172 -173 0
172 -639 -671 0
-173 638 669 0
-173 637 670 0
-173 669 670 0
-173 637 638 0
173 -637 -669 0
173 -638 -670 0
-174 641 672 0
-174 640 673 0
-174 672 673 0
-174 640 641 0
174 -640 -672 0
174 -641 -673 0
175 -688 15 -311 0
175 688 15 -176 0
-175 -15 0
-175 -688 311 0
-175 688 176 0
176 689 -177 0
176 -689 -285 0
-176 -689 285 0
-176 689 177 0
177 690 -178 0
177 -690 -257 0
-177 -690 257 0
-177 690 178 0
178 691 -179 0
178 -691 -232 0
-178 -691 232 0
-178 691 179 0
179 692 -180 0
179 -692 -207 0
-179 -692 207 0
-179 692 180 0
180 -5 181 -198 0
180 5 181 -183 0
-180 -181 0
-180 -5 198 0
-180 5 183 0
-181 156 182 0
181 -156 0
181 -182 0
-182 630 661 0
-182 629 662 0
-182 661 662 0
-182 629 630 0
182 -629 -661 0
182 -630 -662 0
-183 7 184 0
-183 -7 191 0
183 -7 -191 0
183 7 -184 0
-184 9 188 0
-184 -9 185 0
184 -9 -185 0
184 9 -188 0
185 11 -186 0
185 -11 -187 0
-185 -11 187 0
-185 11 186 0
186 -640 -49 0
186 -639 49 0
-186 639 49 0
-186 640 -49 0
187 -642 -49 0
187 -641 49 0
-187 641 49 0
-187 642 -49 0
188 11 -189 0
188 -11 -190 0
-188 -11 190 0
-188 11 189 0
189 -636 -49 0
189 -635 49 0
-189 635 49 0
-189 636 -49 0
190 -638 -49 0
190 -637 49 0
-190 637 49 0
-190 638 -49 0
191 9 -192 0
191 -9 -195 0
-191 -9 195 0
-191 9 192 0
192 11 -193 0
192 -11 -194 0
-192 -11 194 0
-192 11 193 0
193 -644 -49 0
193 -643 49 0
-193 643 49 0
-193 644 -49 0
194 -646 -49 0
194 -645 49 0
-194 645 49 0
-194 646 -49 0
195 11 -196 0
195 -11 -197 0
-195 -11 197 0
-195 11 196 0
196 -648 -49 0
196 -647 49 0
-196 647 49 0
-196 648 -49 0
197 -650 -49 0
197 -649 49 0
-197 649 49 0
-197 650 -49 0
198 7 -199 0
198 -7 -206 0
-198 -7 206 0
-198 7 199 0
199 9 -200 0
199 -9 -203 0
-199 -9 203 0
-199 9 200 0
200 11 -201 0
200 -11 -202 0
-200 -11 202 0
-200 11 201 0
201 -652 -49 0
201 -651 49 0
-201 651 49 0
-201 652 -49 0
202 -654 -49 0
202 -653 49 0
-202 653 49 0
-202 654 -49 0
203 11 -204 0
203 -11 -205 0
-203 -11 205 0
-203 11 204 0
204 -656 -49 0
204 -655 49 0
-204 655 49 0
-204 656 -49 0
205 -658 -49 0
205 -657 49 0
-205 657 49 0
-205 658 -49 0
206 659 9 -49 0
206 -659 691 9 0
-206 -9 0
-206 659 49 0
-206 -659 -691 0
207 -5 181 -223 0
207 5 181 -208 0
-207 -181 0
-207 -5 223 0
-207 5 208 0
-208 7 209 0
-208 -7 216 0
208 -7 -216 0
208 7 -209 0
-209 9 213 0
-209 -9 210 0
209 -9 -210 0
209 9 -213 0
210 11 -211 0
210 -11 -212 0
-210 -11 212 0
-210 11 211 0
211 -641 -49 0
211 -640 49 0
-211 640 49 0
-211 641 -49 0
212 -643 -49 0
212 -642 49 0
-212 642 49 0
-212 643 -49 0
213 11 -214 0
213 -11 -215 0
-213 -11 215 0
-213 11 214 0
214 -637 -49 0
214 -636 49 0
-214 636 49 0
-214 637 -49 0
215 -639 -49 0
215 -638 49 0
-215 638 49 0
-215 639 -49 0
216 9 -217 0
216 -9 -220 0
-216 -9 220 0
-216 9 217 0
217 11 -218 0
217 -11 -219 0
-217 -11 219 0
-217 11 218 0
218 -645 -49 0
218 -644 49 0
-218 644 49 0
-218 645 -49 0
219 -647 -49 0
219 -646 49 0
-219 646 49 0
-219 647 -49 0
220 11 -221 0
220 -11 -222 0
-220 -11 222 0
-220 11 221 0
221 -649 -49 0
221 -648 49 0
-221 648 49 0
-221 649 -49 0
222 -651 -49 0
222 -650 49 0
-222 650 49 0
-222 651 -49 0
223 7 -224 0
223 -7 -231 0
-223 -7 231 0
-223 7 224 0
224 9 -225 0
224 -9 -228 0
-224 -9 228 0
-224 9 225 0
225 11 -226 0
225 -11 -227 0
-225 -11 227 0
-225 11 226 0
226 -653 -49 0
226 -652 49 0
-226 652 49 0
-226 653 -49 0
227 -655 -49 0
227 -654 49 0
-227 654 49 0
-227 655 -49 0
228 11 -229 0
228 -11 -230 0
-228 -11 230 0
-228 11 229 0
229 -657 -49 0
229 -656 49 0
-229 656 49 0
-229 657 -49 0
230 -659 -49 0
230 -658 49 0
-230 658 49 0
-230 659 -49 0
231 9 11 -75 0
-231 75 0
-231 -11 0
-231 -9 0
232 692 -233 0
232 -692 -245 0
-232 -692 245 0
-232 692 233 0
233 -5 181 -241 0
233 5 181 -234 0
-233 -181 0
-233 -5 241 0
-233 5 234 0
234 7 -235 0
234 -7 -238 0
-234 -7 238 0
-234 7 235 0
235 9 -236 0
235 -9 -237 0
-235 -9 237 0
-235 9 236 0
236 -11 -186 0
236 11 -190 0
-236 11 190 0
-236 -11 186 0
237 11 -187 0
237 -11 -193 0
-237 -11 193 0
-237 11 187 0
238 9 -239 0
238 -9 -240 0
-238 -9 240 0
-238 9 239 0
239 11 -194 0
239 -11 -196 0
-239 -11 196 0
-239 11 194 0
240 11 -197 0
240 -11 -201 0
-240 -11 201 0
-240 11 197 0
241 7 -242 0
-241 -7 0
-241 242 0
242 9 -243 0
242 -9 -244 0
-242 -9 244 0
-242 9 243 0
243 11 -202 0
243 -11 -204 0
-243 -11 204 0
-243 11 202 0
-244 658 11 -49 0
-244 657 11 49 0
244 -11 0
244 -657 49 0
244 -658 -49 0
245 -5 181 -253 0
245 5 181 -246 0
-245 -181 0
-245 -5 253 0
-245 5 246 0
246 7 -247 0
246 -7 -250 0
-246 -7 250 0
-246 7 247 0
247 9 -248 0
247 -9 -249 0
-247 -9 249 0
-247 9 248 0
248 -11 -211 0
248 11 -215 0
-248 11 215 0
-248 -11 211 0
249 11 -212 0
249 -11 -218 0
-249 -11 218 0
-249 11 212 0
250 9 -251 0
250 -9 -252 0
-250 -9 252 0
-250 9 251 0
251 11 -219 0
251 -11 -221 0
-251 -11 221 0
-251 11 219 0
252 11 -222 0
252 -11 -226 0
-252 -11 226 0
-252 11 222 0
253 7 -254 0
-253 -7 0
-253 254 0
254 9 -255 0
254 -9 -256 0
-254 -9 256 0
-254 9 255 0
255 11 -227 0
255 -11 -229 0
-255 -11 229 0
-255 11 227 0
256 -11 -75 0
256 11 -230 0
-256 11 230 0
-256 -11 75 0
257 691 -258 0
257 -691 -272 0
-257 -691 272 0
-257 691 258 0
258 692 -259 0
258 -692 -266 0
-258 -692 266 0
-258 692 259 0
259 -5 181 -263 0
259 5 181 -260 0
-259 -181 0
-259 -5 263 0
-259 5 260 0
260 7 -261 0
260 -7 -262 0
-260 -7 262 0
-260 7 261 0
261 9 -185 0
261 -9 -192 0
-261 -9 192 0
-261 9 185 0
262 9 -195 0
262 -9 -200 0
-262 -9 200 0
-262 9 195 0
263 7 -264 0
-263 -7 0
-263 264 0
264 9 -203 0
264 -9 -265 0
-264 -9 265 0
-264 9 203 0
265 -659 691 0
265 659 -49 0
-265 -659 -691 0
-265 659 49 0
266 -5 181 -270 0
266 5 181 -267 0
-266 -181 0
-266 -5 270 0
-266 5 267 0
267 7 -268 0
267 -7 -269 0
-267 -7 269 0
-267 7 268 0
268 9 -210 0
268 -9 -217 0
-268 -9 217 0
-268 9 210 0
269 9 -220 0
269 -9 -225 0
-269 -9 225 0
-269 9 220 0
270 7 -271 0
-270 -7 0
-270 271 0
271 9 -228 0
271 -9 11 -75 0
-271 -9 -11 0
-271 9 228 0
-271 -9 75 0
272 692 -273 0
272 -692 -279 0
-272 -692 279 0
-272 692 273 0
273 -5 181 -277 0
273 5 181 -274 0
-273 -181 0
-273 -5 277 0
-273 5 274 0
274 7 -275 0
274 -7 -276 0
-274 -7 276 0
-274 7 275 0
275 9 -237 0
275 -9 -239 0
-275 -9 239 0
-275 9 237 0
276 9 -240 0
276 -9 -243 0
-276 -9 243 0
-276 9 240 0
277 7 -278 0
-277 -7 0
-277 278 0
278 9 -244 0
-278 -9 0
-278 244 0
279 -5 181 -283 0
279 5 181 -280 0
-279 -181 0
-279 -5 283 0
-279 5 280 0
280 7 -281 0
280 -7 -282 0
-280 -7 282 0
-280 7 281 0
281 9 -249 0
281 -9 -251 0
-281 -9 251 0
-281 9 249 0
282 9 -252 0
282 -9 -255 0
-282 -9 255 0
-282 9 252 0
283 7 -284 0
-283 -7 0
-283 284 0
284 9 -256 0
-284 -9 0
-284 256 0
285 690 -286 0
285 -690 -300 0
-285 -690 300 0
-285 690 286 0
286 691 -287 0
286 -691 -294 0
-286 -691 294 0
-286 691 287 0
287 692 -288 0
287 -692 -291 0
-287 -692 291 0
-287 692 288 0
288 -5 181 -290 0
288 5 181 -289 0
-288 -181 0
-288 -5 290 0
-288 5 289 0
289 7 -191 0
289 -7 -199 0
-289 -7 199 0
-289 7 191 0
290 7 -206 0
-290 -7 0
-290 206 0
291 -5 181 -293 0
291 5 181 -292 0
-291 -181 0
-291 -5 293 0
-291 5 292 0
292 7 -216 0
292 -7 -224 0
-292 -7 224 0
-292 7 216 0
293 7 -231 0
-293 -7 0
-293 231 0
294 692 -295 0
294 -692 -298 0
-294 -692 298 0
-294 692 295 0
295 296 -297 0
-295 -296 0
-295 297 0
-296 5 156 182 0
296 -182 0
296 -156 0
296 -5 0
297 7 -238 0
297 -7 -242 0
-297 -7 242 0
-297 7 238 0
298 296 -299 0
-298 -296 0
-298 299 0
299 7 -250 0
299 -7 -254 0
-299 -7 254 0
-299 7 250 0
300 691 -301 0
300 -691 -306 0
-300 -691 306 0
-300 691 301 0
301 692 -302 0
301 -692 -304 0
-301 -692 304 0
-301 692 302 0
302 296 -303 0
-302 -296 0
-302 303 0
303 7 -262 0
303 -7 -264 0
-303 -7 264 0
-303 7 262 0
304 296 -305 0
-304 -296 0
-304 305 0
305 7 -269 0
305 -7 -271 0
-305 -7 271 0
-305 7 269 0
306 692 -307 0
306 -692 -309 0
-306 -692 309 0
-306 692 307 0
307 296 -308 0
-307 -296 0
-307 308 0
308 7 -276 0
308 -7 -278 0
-308 -7 278 0
-308 7 276 0
309 296 -310 0
-309 -296 0
-309 310 0
310 7 -282 0
310 -7 -284 0
-310 -7 284 0
-310 7 282 0
311 689 -312 0
311 -689 -327 0
-311 -689 327 0
-311 689 312 0
312 690 -313 0
312 -690 -320 0
-312 -690 320 0
-312 690 313 0
313 691 -314 0
313 -691 -317 0
-313 -691 317 0
-313 691 314 0
314 692 -315 0
314 -692 -316 0
-314 -692 316 0
-314 692 315 0
315 -198 296 0
-315 198 0
-315 -296 0
316 -223 296 0
-316 223 0
-316 -296 0
317 692 -318 0
317 -692 -319 0
-317 -692 319 0
-317 692 318 0
318 -241 296 0
-318 241 0
-318 -296 0
319 -253 296 0
-319 253 0
-319 -296 0
320 691 -321 0
320 -691 -324 0
-320 -691 324 0
-320 691 321 0
321 692 -322 0
321 -692 -323 0
-321 -692 323 0
-321 692 322 0
322 -263 296 0
-322 263 0
-322 -296 0
323 -270 296 0
-323 270 0
-323 -296 0
324 692 -325 0
324 -692 -326 0
-324 -692 326 0
-324 692 325 0
325 -277 296 0
-325 277 0
-325 -296 0
326 -283 296 0
-326 283 0
-326 -296 0
327 690 -328 0
-327 -690 0
-327 328 0
328 692 -329 0
-328 -692 0
-328 329 0
329 -290 296 0
-329 290 0
-329 -296 0
-330 -331 -348 375 0
-330 331 348 375 0
330 -375 0
330 -331 348 0
330 331 -348 0
331 -5 155 0
331 155 -332 0
-331 -155 0
-331 5 332 0
332 7 -333 0
332 -7 -340 0
-332 -7 340 0
-332 7 333 0
333 9 -334 0
333 -9 -337 0
-333 -9 337 0
-333 9 334 0
334 11 -335 0
334 -11 -336 0
-334 -11 336 0
-334 11 335 0
335 49 -50 0
335 -49 -77 0
-335 -49 77 0
-335 49 50 0
336 49 -90 0
336 -49 -104 0
-336 -49 104 0
-336 49 90 0
337 11 -338 0
337 -11 -339 0
-337 -11 339 0
-337 11 338 0
338 49 -110 0
338 -49 -117 0
-338 -49 117 0
-338 49 110 0
339 49 -123 0
339 -49 -132 0
-339 -49 132 0
-339 49 123 0
340 9 -341 0
340 -9 -344 0
-340 -9 344 0
-340 9 341 0
341 11 -342 0
341 -11 -343 0
-341 -11 343 0
-341 11 342 0
342 49 -135 0
342 -49 -139 0
-342 -49 139 0
-342 49 135 0
343 660 -142 0
343 -660 -692 -146 0
343 692 -142 0
-343 660 142 0
-343 692 142 0
-343 -660 -692 146 0
344 11 -345 0
344 -11 -346 0
-344 -11 346 0
-344 11 345 0
345 660 -148 0
345 -660 -692 -151 0
345 692 -148 0
-345 660 148 0
-345 692 148 0
-345 -660 -692 151 0
346 660 -153 0
346 -660 -692 -347 0
346 692 -153 0
-346 660 153 0
-346 692 153 0
-346 -660 -692 347 0
347 -39 140 0
-347 39 0
-347 -140 0
348 -688 15 -364 0
348 688 15 -349 0
-348 -15 0
-348 -688 364 0
-348 688 349 0
349 689 -350 0
349 -689 -357 0
-349 -689 357 0
-349 689 350 0
350 690 -351 0
350 -690 -354 0
-350 -690 354 0
-350 690 351 0
351 691 -352 0
351 -691 -353 0
-351 -691 353 0
-351 691 352 0
352 692 -207 0
352 -692 -233 0
-352 -692 233 0
-352 692 207 0
353 692 -245 0
353 -692 -259 0
-353 -692 259 0
-353 692 245 0
354 691 -355 0
354 -691 -356 0
-354 -691 356 0
-354 691 355 0
355 692 -266 0
355 -692 -273 0
-355 -692 273 0
-355 692 266 0
356 692 -279 0
356 -692 -288 0
-356 -692 288 0
-356 692 279 0
357 690 -358 0
357 -690 -361 0
-357 -690 361 0
-357 690 358 0
358 691 -359 0
358 -691 -360 0
-358 -691 360 0
-358 691 359 0
359 692 -291 0
359 -692 -295 0
-359 -692 295 0
-359 692 291 0
360 692 -298 0
360 -692 -302 0
-360 -692 302 0
-360 692 298 0
361 691 -362 0
361 -691 -363 0
-361 -691 363 0
-361 691 362 0
362 692 -304 0
362 -692 -307 0
-362 -692 307 0
-362 692 304 0
363 692 -309 0
363 -692 -315 0
-363 -692 315 0
-363 692 309 0
364 689 -365 0
364 -689 -372 0
-364 -689 372 0
-364 689 365 0
365 690 -366 0
365 -690 -369 0
-365 -690 369 0
-365 690 366 0
366 691 -367 0
366 -691 -368 0
-366 -691 368 0
-366 691 367 0
367 692 -316 0
367 -692 -318 0
-367 -692 318 0
-367 692 316 0
368 692 -319 0
368 -692 -322 0
-368 -692 322 0
-368 692 319 0
369 691 -370 0
369 -691 -371 0
-369 -691 371 0
-369 691 370 0
370 692 -323 0
370 -692 -325 0
-370 -692 325 0
-370 692 323 0
371 692 -326 0
371 -692 -329 0
-371 -692 329 0
-371 692 326 0
372 690 -373 0
-372 -690 0
-372 373 0
373 691 -374 0
-373 -691 0
-373 374 0
374 -293 296 0
-374 293 0
-374 -296 0
-375 -376 477 0
-375 417 -470 0
-375 417 477 0
-375 -376 -470 0
375 376 -417 0
375 470 -477 0
376 -5 155 0
376 155 -377 0
-376 -155 0
-376 5 377 0
377 7 -378 0
377 -7 -414 0
-377 -7 414 0
-377 7 378 0
378 9 -379 0
378 -9 -406 0
-378 -9 406 0
-378 9 379 0
379 11 -380 0
379 -11 -397 0
-379 -11 397 0
-379 11 380 0
380 -49 -389 0
380 49 14 -381 0
-380 -49 389 0
-380 49 -14 0
-380 49 381 0
-381 -688 141 0
-381 688 382 0
381 -688 -141 0
381 688 -382 0
-382 -689 79 0
-382 689 383 0
382 -689 -79 0
382 689 -383 0
-383 690 386 0
-383 -690 384 0
383 -690 -384 0
383 690 -386 0
384 -691 -30 0
384 691 -385 0
-384 691 385 0
-384 -691 30 0
385 -634 -692 0
385 -633 692 0
-385 633 692 0
-385 634 -692 0
386 691 -387 0
386 -691 -388 0
-386 -691 388 0
-386 691 387 0
387 -630 -692 0
387 -629 692 0
-387 629 692 0
-387 630 -692 0
388 -632 -692 0
388 -631 692 0
-388 631 692 0
-388 632 -692 0
389 688 14 -390 0
389 -688 14 -143 0
-389 -14 0
-389 688 390 0
-389 -688 143 0
-390 -689 92 0
-390 689 391 0
390 -689 -92 0
390 689 -391 0
-391 690 392 0
-391 -690 395 0
391 -690 -395 0
391 690 -392 0
-392 691 394 0
-392 -691 393 0
392 -691 -393 0
392 691 -394 0
393 -633 -692 0
393 -632 692 0
-393 632 692 0
-393 633 -692 0
394 -631 -692 0
394 -630 692 0
-394 630 692 0
-394 631 -692 0
395 -691 -57 0
395 691 -396 0
-395 691 396 0
-395 -691 57 0
396 -635 -692 0
396 -634 692 0
-396 634 692 0
-396 635 -692 0
397 660 -398 0
397 -660 -692 -402 0
397 692 -398 0
-397 660 398 0
-397 692 398 0
-397 -660 -692 402 0
398 688 14 -399 0
398 -688 14 -147 0
-398 -14 0
-398 688 399 0
-398 -688 147 0
-399 -689 106 0
-399 689 400 0
399 -689 -106 0
399 689 -400 0
-400 -690 29 0
-400 690 401 0
400 -690 -29 0
400 690 -401 0
-401 691 388 0
-401 -691 385 0
401 -691 -385 0
401 691 -388 0
402 688 14 -403 0
402 -688 14 -149 0
-402 -14 0
-402 688 403 0
-402 -688 149 0
-403 -689 112 0
-403 689 404 0
403 -689 -112 0
403 689 -404 0
-404 -690 56 0
-404 690 405 0
404 -690 -56 0
404 690 -405 0
-405 -691 396 0
-405 691 393 0
405 691 -393 0
405 -691 -396 0
406 -11 -12 0
406 11 -407 0
-406 11 407 0
-406 -11 12 0
407 660 -408 0
407 -660 -692 -411 0
407 692 -408 0
-407 660 408 0
-407 692 408 0
-407 -660 -692 411 0
408 688 14 -409 0
408 -688 14 -152 0
-408 -14 0
-408 688 409 0
-408 -688 152 0
-409 -689 119 0
-409 689 410 0
409 -689 -119 0
409 689 -410 0
-410 690 384 0
-410 -690 80 0
410 -690 -80 0
410 690 -384 0
411 688 14 -412 0
411 -688 14 -154 0
-411 -14 0
-411 688 412 0
-411 -688 154 0
-412 -689 125 0
-412 689 413 0
412 -689 -125 0
412 689 -413 0
-413 690 395 0
-413 -690 93 0
413 -690 -93 0
413 690 -395 0
414 9 -415 0
414 -9 -416 0
-414 -9 416 0
-414 9 415 0
415 11 -76 0
415 -11 -103 0
-415 -11 103 0
-415 11 76 0
416 11 -116 0
416 -11 -131 0
-416 -11 131 0
-416 11 116 0
417 -688 15 -463 0
417 688 15 -418 0
-417 -15 0
-417 -688 463 0
-417 688 418 0
418 689 -419 0
418 -689 -460 0
-418 -689 460 0
-418 689 419 0
419 690 -420 0
419 -690 -452 0
-419 -690 452 0
-419 690 420 0
420 691 -421 0
420 -691 -443 0
420 691 -430 0
-420 -691 443 0
-420 691 421 430 0
421 -692 -422 0
-421 692 0
-421 422 0
422 5 181 -423 0
422 -5 181 -299 0
-422 -181 0
-422 5 423 0
-422 -5 299 0
-423 -7 247 0
-423 7 424 0
423 -7 -247 0
423 7 -424 0
-424 9 425 0
-424 -9 428 0
424 -9 -428 0
424 9 -425 0
-425 11 427 0
-425 -11 426 0
425 -11 -426 0
425 11 -427 0
426 -633 -49 0
426 -632 49 0
-426 632 49 0
-426 633 -49 0
427 -631 -49 0
427 -630 49 0
-427 630 49 0
-427 631 -49 0
428 -11 -214 0
428 11 -429 0
-428 11 429 0
-428 -11 214 0
429 -635 -49 0
429 -634 49 0
-429 634 49 0
-429 635 -49 0
430 5 431 -436 0
430 -5 -297 431 0
-430 -431 0
-430 5 436 0
-430 -5 297 0
-431 692 157 432 434 0
431 -692 0
431 -434 0
431 -432 0
431 -157 0
-432 681 163 433 0
-432 649 163 433 0
432 -163 0
432 -433 0
432 -649 -681 0
433 -646 -678 0
-433 646 0
-433 678 0
-434 164 171 182 435 0
434 -435 0
434 -164 0
434 -182 0
434 -171 0
-435 165 170 172 0
435 -165 0
435 -170 0
435 -172 0
-436 7 437 0
-436 -7 235 0
436 -7 -235 0
436 7 -437 0
437 9 -438 0
437 -9 -441 0
-437 -9 441 0
-437 9 438 0
438 11 -439 0
438 -11 -440 0
-438 -11 440 0
-438 11 439 0
439 -630 -49 0
439 -629 49 0
-439 629 49 0
-439 630 -49 0
440 -632 -49 0
440 -631 49 0
-440 631 49 0
-440 632 -49 0
441 -11 -189 0
441 11 -442 0
-441 11 442 0
-441 -11 189 0
442 -634 -49 0
442 -633 49 0
-442 633 49 0
-442 634 -49 0
443 692 -444 0
443 -692 -448 0
-443 -692 448 0
-443 692 444 0
444 5 181 -445 0
444 -5 181 -303 0
-444 -181 0
-444 5 445 0
-444 -5 303 0
-445 -7 261 0
-445 7 446 0
445 -7 -261 0
445 7 -446 0
-446 -9 188 0
-446 9 447 0
446 -9 -188 0
446 9 -447 0
-447 -11 442 0
-447 11 440 0
447 11 -440 0
447 -11 -442 0
448 5 181 -449 0
448 -5 181 -305 0
-448 -181 0
-448 5 449 0
-448 -5 305 0
-449 -7 268 0
-449 7 450 0
449 -7 -268 0
449 7 -450 0
-450 -9 213 0
-450 9 451 0
450 -9 -213 0
450 9 -451 0
-451 -11 429 0
-451 11 426 0
451 11 -426 0
451 -11 -429 0
452 -691 -179 0
452 691 -453 0
-452 691 453 0
-452 -691 179 0
453 692 -454 0
453 -692 -457 0
-453 -692 457 0
-453 692 454 0
454 5 181 -455 0
454 -5 181 -308 0
-454 -181 0
-454 5 455 0
-454 -5 308 0
-455 -7 275 0
-455 7 456 0
455 -7 -275 0
455 7 -456 0
-456 9 441 0
-456 -9 236 0
456 -9 -236 0
456 9 -441 0
457 5 181 -458 0
457 -5 181 -310 0
-457 -181 0
-457 5 458 0
-457 -5 310 0
-458 -7 281 0
-458 7 459 0
458 -7 -281 0
458 7 -459 0
-459 9 428 0
-459 -9 248 0
459 -9 -248 0
459 9 -428 0
460 690 -461 0
460 -690 -462 0
-460 -690 462 0
-460 690 461 0
461 691 -232 0
461 -691 -258 0
-461 -691 258 0
-461 691 232 0
462 691 -272 0
462 -691 -287 0
-462 -691 287 0
-462 691 272 0
463 689 -464 0
463 -689 -467 0
-463 -689 467 0
-463 689 464 0
464 690 -465 0
464 -690 -466 0
-464 -690 466 0
-464 690 465 0
465 691 -294 0
465 -691 -301 0
-465 -691 301 0
-465 691 294 0
466 691 -306 0
466 -691 -314 0
-466 -691 314 0
-466 691 306 0
467 690 -468 0
467 -690 -469 0
-467 -690 469 0
-467 690 468 0
468 691 -317 0
468 -691 -321 0
-468 -691 321 0
-468 691 317 0
469 691 -324 0
-469 -691 0
-469 324 0
470 -5 155 0
470 155 -471 0
-470 -155 0
-470 5 471 0
471 7 -472 0
471 -7 -476 0
-471 -7 476 0
-471 7 472 0
472 -9 -334 0
472 9 -473 0
-472 9 473 0
-472 -9 334 0
473 11 -474 0
473 -11 -475 0
-473 -11 475 0
-473 11 474 0
474 660 -402 0
474 -660 -692 -408 0
474 692 -402 0
-474 660 402 0
-474 692 402 0
-474 -660 -692 408 0
475 692 -411 0
475 660 -411 0
475 -660 -692 -13 0
-475 660 411 0
-475 -660 -692 13 0
-475 692 411 0
476 9 -337 0
476 -9 -341 0
-476 -9 341 0
-476 9 337 0
477 -688 15 -484 0
477 688 15 -478 0
-477 -15 0
-477 -688 484 0
-477 688 478 0
478 689 -479 0
478 -689 -483 0
-478 -689 483 0
-478 689 479 0
479 -690 -351 0
479 690 -480 0
-479 690 480 0
-479 -690 351 0
480 691 -481 0
480 -691 -482 0
-480 -691 482 0
-480 691 481 0
481 692 -448 0
481 -692 -454 0
-481 -692 454 0
-481 692 448 0
482 -692 -180 0
482 692 -457 0
-482 692 457 0
-482 -692 180 0
483 690 -354 0
483 -690 -358 0
-483 -690 358 0
-483 690 354 0
484 689 -485 0
484 -689 -486 0
-484 -689 486 0
-484 689 485 0
485 690 -361 0
485 -690 -366 0
-485 -690 366 0
-485 690 361 0
486 690 -369 0
486 -690 -373 0
-486 -690 373 0
-486 690 369 0
-487 488 516 539 0
487 -488 0
487 -516 0
487 -539 0
-488 489 494 502 503 0
-488 -489 -494 502 503 0
488 -502 0
488 -489 494 0
488 -503 0
488 489 -494 0
489 -5 155 0
489 155 -490 0
-489 -155 0
-489 5 490 0
490 7 -491 0
490 -7 -493 0
-490 -7 493 0
-490 7 491 0
491 -9 -10 0
491 9 -492 0
-491 9 492 0
-491 -9 10 0
492 11 -397 0
492 -11 -407 0
-492 -11 407 0
-492 11 397 0
493 9 -102 0
493 -9 -130 0
-493 -9 130 0
-493 9 102 0
494 -688 15 -499 0
494 688 15 -495 0
-494 -15 0
-494 -688 499 0
-494 688 495 0
495 689 -496 0
495 -689 -498 0
-495 -689 498 0
-495 689 496 0
496 -690 -178 0
496 690 -497 0
-496 690 497 0
-496 -690 178 0
497 691 -443 0
497 -691 -453 0
-497 -691 453 0
-497 691 443 0
498 690 -257 0
498 -690 -286 0
-498 -690 286 0
-498 690 257 0
499 689 -500 0
499 -689 -501 0
-499 -689 501 0
-499 689 500 0
500 690 -300 0
500 -690 -313 0
-500 -690 313 0
-500 690 300 0
501 690 -320 0
501 -690 -328 0
-501 -690 328 0
-501 690 320 0
502 -376 417 0
-502 376 0
-502 -417 0
503 504 -509 0
503 -504 509 0
-503 -504 -509 0
-503 504 509 0
504 -5 155 0
504 155 -505 0
-504 -155 0
-504 5 505 0
505 7 -506 0
505 -7 -507 0
-505 -7 507 0
-505 7 506 0
506 9 -406 0
506 -9 -415 0
-506 -9 415 0
-506 9 406 0
507 9 -416 0
507 -9 -508 0
-507 -9 508 0
-507 9 416 0
508 11 -138 0
508 -11 -145 0
-508 -11 145 0
-508 11 138 0
509 -688 15 -513 0
509 688 15 -510 0
-509 -15 0
-509 -688 513 0
-509 688 510 0
510 689 -511 0
510 -689 -512 0
-510 -689 512 0
-510 689 511 0
511 690 -452 0
511 -690 -461 0
-511 -690 461 0
-511 690 452 0
512 690 -462 0
512 -690 -465 0
-512 -690 465 0
-512 690 462 0
513 689 -514 0
513 -689 -515 0
-513 -689 515 0
-513 689 514 0
514 690 -466 0
514 -690 -468 0
-514 -690 468 0
-514 690 466 0
515 690 -469 0
-515 -690 0
-515 469 0
-516 470 -517 -525 0
-516 -477 517 525 0
-516 470 517 525 0
-516 -477 -517 -525 0
516 517 -525 0
516 -517 525 0
516 -470 477 0
517 -5 155 0
517 155 -518 0
-517 -155 0
-517 5 518 0
518 7 -519 0
518 -7 -522 0
-518 -7 522 0
-518 7 519 0
519 9 -520 0
519 -9 -521 0
-519 -9 521 0
-519 9 520 0
520 -11 -335 0
520 11 -475 0
-520 11 475 0
-520 -11 335 0
521 11 -336 0
521 -11 -338 0
-521 -11 338 0
-521 11 336 0
522 9 -523 0
522 -9 -524 0
-522 -9 524 0
-522 9 523 0
523 11 -339 0
523 -11 -342 0
-523 -11 342 0
-523 11 339 0
524 11 -343 0
524 -11 -345 0
-524 -11 345 0
-524 11 343 0
525 -688 15 -533 0
525 688 15 -526 0
-525 -15 0
-525 -688 533 0
-525 688 526 0
526 689 -527 0
526 -689 -530 0
-526 -689 530 0
-526 689 527 0
527 690 -528 0
527 -690 -529 0
-527 -690 529 0
-527 690 528 0
528 -691 -352 0
528 691 -482 0
-528 691 482 0
-528 -691 352 0
529 691 -353 0
529 -691 -355 0
-529 -691 355 0
-529 691 353 0
530 690 -531 0
530 -690 -532 0
-530 -690 532 0
-530 690 531 0
531 691 -356 0
531 -691 -359 0
-531 -691 359 0
-531 691 356 0
532 691 -360 0
532 -691 -362 0
-532 -691 362 0
-532 691 360 0
533 689 -534 0
533 -689 -537 0
-533 -689 537 0
-533 689 534 0
534 690 -535 0
534 -690 -536 0
-534 -690 536 0
-534 690 535 0
535 691 -363 0
535 -691 -367 0
-535 -691 367 0
-535 691 363 0
536 691 -368 0
536 -691 -370 0
-536 -691 370 0
-536 691 368 0
537 690 -538 0
-537 -690 0
-537 538 0
538 691 -371 0
538 -691 -374 0
-538 -691 374 0
-538 691 371 0
-539 4 -540 -546 0
-539 -175 540 546 0
-539 4 540 546 0
-539 -175 -540 -546 0
539 540 -546 0
539 -540 546 0
539 -4 175 0
540 -5 155 0
540 155 -541 0
-540 -155 0
-540 5 541 0
541 7 -542 0
541 -7 -545 0
-541 -7 545 0
-541 7 542 0
542 -9 -520 0
542 9 -543 0
-542 9 543 0
-542 -9 520 0
543 -11 -474 0
543 11 -544 0
-543 11 544 0
-543 -11 474 0
544 660 -389 0
544 -660 -692 -398 0
544 692 -389 0
-544 660 389 0
-544 692 389 0
-544 -660 -692 398 0
545 9 -521 0
545 -9 -523 0
-545 -9 523 0
-545 9 521 0
546 -688 15 -552 0
546 688 15 -547 0
-546 -15 0
-546 -688 552 0
-546 688 547 0
547 689 -548 0
547 -689 -551 0
-547 -689 551 0
-547 689 548 0
548 -690 -528 0
548 690 -549 0
-548 690 549 0
-548 -690 528 0
549 -691 -481 0
549 691 -550 0
-549 691 550 0
-549 -691 481 0
550 692 -422 0
550 -692 -444 0
-550 -692 444 0
-550 692 422 0
551 690 -529 0
551 -690 -531 0
-551 -690 531 0
-551 690 529 0
552 689 -553 0
552 -689 -554 0
-552 -689 554 0
-552 689 553 0
553 690 -532 0
553 -690 -535 0
-553 -690 535 0
-553 690 532 0
554 690 -536 0
554 -690 -538 0
-554 -690 538 0
-554 690 536 0
-555 556 612 -622 -625 0
-555 556 612 622 625 0
555 -612 0
555 622 -625 0
555 -556 0
555 -622 625 0
-556 558 593 604 0
-556 -557 593 604 0
556 -593 0
556 -604 0
556 557 -558 0
-557 160 182 0
557 -160 0
557 -182 0
-558 559 -570 578 0
-558 559 573 578 0
558 -559 0
558 -578 0
558 570 -573 0
559 560 562 -563 0
559 -561 562 -563 0
-559 563 0
-559 -562 0
-559 -560 561 0
-560 688 -689 485 0
-560 688 689 483 0
560 -688 0
560 -689 -485 0
560 689 -483 0
-561 688 14 0
-561 689 14 -486 0
561 -14 0
561 -688 486 0
561 -688 -689 0
-562 633 158 161 0
-562 665 158 161 0
562 -161 0
562 -158 0
562 -633 -665 0
563 5 -7 -564 0
563 5 7 -476 0
-563 -5 0
-563 -7 564 0
-563 7 476 0
564 9 -344 0
564 -9 -565 0
-564 -9 565 0
-564 9 344 0
565 11 -566 0
565 -11 -568 0
-565 -11 568 0
-565 11 566 0
566 49 -567 0
566 -49 -85 140 0
-566 -49 85 0
-566 49 567 0
-566 -49 -140 0
567 -66 140 0
-567 66 0
-567 -140 0
568 49 -569 0
568 -49 -108 140 0
-568 -49 108 0
-568 49 569 0
-568 -49 -140 0
569 -98 140 0
-569 98 0
-569 -140 0
570 -688 14 -572 0
570 688 14 -571 0
-570 -14 0
-570 -688 572 0
-570 688 571 0
-571 -689 464 0
-571 689 460 0
571 689 -460 0
571 -689 -464 0
572 689 -467 0
-572 -689 0
-572 467 0
573 5 562 -574 0
-573 -5 0
-573 -562 0
-573 574 0
-574 -7 575 0
-574 7 414 0
574 7 -414 0
574 -7 -575 0
575 9 -508 0
575 -9 -576 0
-575 -9 576 0
-575 9 508 0
576 11 -150 0
576 -11 -577 0
-576 -11 577 0
-576 11 150 0
577 660 -347 0
577 -660 -692 -567 0
577 692 -347 0
-577 660 347 0
-577 692 347 0
-577 -660 -692 567 0
-578 582 587 0
-578 -579 587 0
-578 -562 587 0
578 -587 0
578 562 579 -582 0
579 -688 14 -581 0
579 688 14 -580 0
-579 -14 0
-579 -688 581 0
-579 688 580 0
580 689 -498 0
580 -689 -500 0
-580 -689 500 0
-580 689 498 0
581 689 -501 0
-581 -689 0
-581 501 0
582 5 -7 -583 0
582 5 7 -493 0
-582 -5 0
-582 -7 583 0
-582 7 493 0
583 9 -144 0
583 -9 -584 0
-583 -9 584 0
-583 9 144 0
584 11 -577 0
584 -11 -585 0
-584 -11 585 0
-584 11 577 0
585 49 -586 0
585 -49 -98 140 0
-585 -49 98 0
-585 49 586 0
-585 -49 -140 0
586 -85 140 0
-586 85 0
-586 -140 0
587 -14 562 -590 0
587 562 588 -590 0
-587 590 0
-587 -562 0
-587 14 -588 0
-588 -688 -689 0
-588 688 589 0
-588 -688 554 0
588 688 -589 0
588 -688 689 -554 0
-589 -689 553 0
-589 689 551 0
589 689 -551 0
589 -689 -553 0
590 5 -7 -591 0
590 5 7 -545 0
-590 -5 0
-590 -7 591 0
-590 7 545 0
591 9 -524 0
591 -9 -592 0
-591 -9 592 0
-591 9 524 0
592 11 -346 0
592 -11 -566 0
-592 -11 566 0
-592 11 346 0
-593 570 594 0
-593 557 -573 594 0
593 -594 0
593 -570 573 0
593 -557 -570 0
594 595 -598 0
-594 -595 0
-594 598 0
595 -688 14 -597 0
595 688 14 -596 0
-595 -14 0
-595 -688 597 0
-595 688 596 0
596 689 -512 0
596 -689 -514 0
-596 -689 514 0
-596 689 512 0
597 689 -515 0
-597 -689 0
-597 515 0
598 -5 296 0
598 296 -599 0
-598 -296 0
-598 5 599 0
599 7 -507 0
599 -7 -600 0
-599 -7 600 0
-599 7 507 0
600 9 -576 0
600 -9 -601 0
-600 -9 601 0
-600 9 576 0
601 11 -585 0
601 -11 -602 0
-601 -11 602 0
-601 11 585 0
602 49 -603 0
602 -49 -114 140 0
-602 -49 114 0
-602 49 603 0
-602 -49 -140 0
603 -108 140 0
-603 108 0
-603 -140 0
604 5 181 605 -608 0
-604 -181 0
-604 608 0
-604 -5 0
-604 -605 0
605 -688 14 -607 0
605 688 14 -606 0
-605 -14 0
-605 -688 607 0
-605 688 606 0
-606 -689 312 0
-606 689 285 0
606 689 -285 0
606 -689 -312 0
607 689 -327 0
-607 -689 0
-607 327 0
-608 -7 609 0
-608 7 129 0
608 7 -129 0
608 -7 -609 0
609 9 -584 0
609 -9 -610 0
-609 -9 610 0
-609 9 584 0
610 11 -602 0
610 -11 -611 0
-610 -11 611 0
-610 11 602 0
611 49 -121 140 0
611 -49 -127 140 0
-611 -140 0
-611 -49 127 0
-611 49 121 0
-612 -598 613 0
-612 595 613 0
612 -613 0
612 -595 598 0
613 -14 181 -616 0
613 181 614 -616 0
-613 616 0
-613 -181 0
-613 14 -614 0
-614 -688 -689 0
-614 688 615 0
-614 -688 372 0
614 688 -615 0
614 -688 689 -372 0
-615 -689 365 0
-615 689 357 0
615 689 -357 0
615 -689 -365 0
616 5 -7 -617 0
616 5 7 -340 0
-616 -5 0
-616 -7 617 0
-616 7 340 0
617 9 -565 0
617 -9 -618 0
-617 -9 618 0
-617 9 565 0
618 11 -619 0
618 -11 -621 0
-618 -11 621 0
-618 11 619 0
619 49 -620 0
619 -49 -121 140 0
-619 -49 121 0
-619 49 620 0
-619 -49 -140 0
620 -114 140 0
-620 114 0
-620 -140 0
621 49 -127 140 0
621 -49 -134 140 0
-621 -140 0
-621 -49 134 0
-621 49 127 0
622 -688 14 -624 0
622 688 14 -623 0
-622 -14 0
-622 -688 624 0
-622 688 623 0
623 689 -530 0
623 -689 -534 0
-623 -689 534 0
-623 689 530 0
624 689 -537 0
-624 -689 0
-624 537 0
625 -5 296 0
625 296 -626 0
-625 -296 0
-625 5 626 0
626 7 -522 0
626 -7 -627 0
-626 -7 627 0
-626 7 522 0
627 9 -592 0
627 -9 -628 0
-627 -9 628 0
-627 9 592 0
628 11 -568 0
628 -11 -619 0
-628 -11 619 0
-628 11 568 0
-693 0
2 0

